40
1 0 4
2 0 4
2 1 7
3 0 3
3 1 5
3 2 10
4 0 9
4 1 5
4 2 2
4 3 3
5 0 3
5 1 7
5 2 1
5 3 5
5 4 1
6 0 4
6 1 3
6 2 6
6 3 4
6 4 7
6 5 3
7 0 2
7 1 7
7 2 10
7 3 3
7 4 7
7 5 2
7 6 10
8 0 8
8 1 8
8 2 5
8 3 7
8 4 9
8 5 7
8 6 1
8 7 7
9 0 1
9 1 10
9 2 10
9 3 2
9 4 5
9 5 4
9 6 6
9 7 7
9 8 2
10 0 4
10 1 10
10 2 3
10 3 7
10 4 8
10 5 7
10 6 4
10 7 6
10 8 3
10 9 8
11 0 9
11 1 5
11 2 4
11 3 6
11 4 10
11 5 4
11 6 5
11 7 7
11 8 8
11 9 4
11 10 8
12 0 6
12 1 5
12 2 4
12 3 3
12 4 7
12 5 8
12 6 9
12 7 5
12 8 10
12 9 6
12 10 6
12 11 4
13 0 4
13 1 8
13 2 2
13 3 6
13 4 5
13 5 10
13 6 10
13 7 6
13 8 10
13 9 5
13 10 5
13 11 3
13 12 6
14 0 7
14 1 10
14 2 5
14 3 10
14 4 8
14 5 10
14 6 5
14 7 2
14 8 9
14 9 8
14 10 8
14 11 8
14 12 8
14 13 1
15 0 1
15 1 9
15 2 4
15 3 2
15 4 5
15 5 10
15 6 10
15 7 3
15 8 2
15 9 7
15 10 6
15 11 10
15 12 1
15 13 5
15 14 9
16 0 8
16 1 5
16 2 6
16 3 4
16 4 6
16 5 5
16 6 8
16 7 6
16 8 9
16 9 10
16 10 1
16 11 7
16 12 8
16 13 10
16 14 10
16 15 7
17 0 2
17 1 4
17 2 2
17 3 2
17 4 10
17 5 2
17 6 1
17 7 7
17 8 4
17 9 9
17 10 9
17 11 8
17 12 9
17 13 6
17 14 1
17 15 7
17 16 2
18 0 6
18 1 10
18 2 9
18 3 5
18 4 3
18 5 7
18 6 1
18 7 1
18 8 10
18 9 3
18 10 6
18 11 3
18 12 1
18 13 2
18 14 8
18 15 6
18 16 8
18 17 1
19 0 7
19 1 9
19 2 4
19 3 2
19 4 10
19 5 3
19 6 8
19 7 3
19 8 5
19 9 10
19 10 9
19 11 9
19 12 5
19 13 8
19 14 5
19 15 5
19 16 10
19 17 8
19 18 4
20 0 2
20 1 7
20 2 4
20 3 1
20 4 2
20 5 9
20 6 7
20 7 2
20 8 8
20 9 6
20 10 2
20 11 7
20 12 3
20 13 7
20 14 6
20 15 1
20 16 9
20 17 3
20 18 9
20 19 9
21 0 10
21 1 6
21 2 7
21 3 8
21 4 9
21 5 6
21 6 9
21 7 3
21 8 9
21 9 10
21 10 5
21 11 7
21 12 9
21 13 8
21 14 3
21 15 7
21 16 5
21 17 4
21 18 1
21 19 2
21 20 2
22 0 8
22 1 7
22 2 10
22 3 5
22 4 4
22 5 9
22 6 10
22 7 2
22 8 2
22 9 9
22 10 9
22 11 9
22 12 8
22 13 6
22 14 9
22 15 9
22 16 5
22 17 8
22 18 3
22 19 7
22 20 7
22 21 9
23 0 9
23 1 10
23 2 1
23 3 6
23 4 5
23 5 6
23 6 5
23 7 6
23 8 6
23 9 8
23 10 5
23 11 7
23 12 1
23 13 5
23 14 3
23 15 4
23 16 10
23 17 5
23 18 4
23 19 3
23 20 4
23 21 4
23 22 8
24 0 8
24 1 7
24 2 6
24 3 9
24 4 4
24 5 2
24 6 2
24 7 7
24 8 10
24 9 7
24 10 3
24 11 4
24 12 1
24 13 3
24 14 5
24 15 7
24 16 1
24 17 7
24 18 9
24 19 6
24 20 6
24 21 10
24 22 4
24 23 3
25 0 4
25 1 2
25 2 8
25 3 8
25 4 2
25 5 2
25 6 5
25 7 5
25 8 10
25 9 10
25 10 3
25 11 1
25 12 3
25 13 9
25 14 2
25 15 3
25 16 8
25 17 8
25 18 3
25 19 6
25 20 4
25 21 3
25 22 10
25 23 4
25 24 6
26 0 8
26 1 2
26 2 6
26 3 3
26 4 5
26 5 4
26 6 3
26 7 2
26 8 10
26 9 1
26 10 5
26 11 6
26 12 1
26 13 6
26 14 4
26 15 6
26 16 8
26 17 10
26 18 7
26 19 8
26 20 3
26 21 7
26 22 2
26 23 1
26 24 1
26 25 3
27 0 9
27 1 1
27 2 2
27 3 1
27 4 2
27 5 8
27 6 4
27 7 8
27 8 7
27 9 7
27 10 5
27 11 8
27 12 7
27 13 1
27 14 5
27 15 2
27 16 5
27 17 4
27 18 4
27 19 7
27 20 1
27 21 8
27 22 6
27 23 9
27 24 3
27 25 9
27 26 9
28 0 8
28 1 8
28 2 2
28 3 9
28 4 7
28 5 6
28 6 9
28 7 7
28 8 9
28 9 2
28 10 5
28 11 1
28 12 3
28 13 5
28 14 5
28 15 8
28 16 2
28 17 3
28 18 10
28 19 5
28 20 10
28 21 3
28 22 1
28 23 1
28 24 4
28 25 4
28 26 10
28 27 5
29 0 2
29 1 1
29 2 9
29 3 2
29 4 9
29 5 2
29 6 5
29 7 2
29 8 10
29 9 9
29 10 2
29 11 10
29 12 8
29 13 7
29 14 2
29 15 2
29 16 2
29 17 7
29 18 8
29 19 7
29 20 2
29 21 7
29 22 7
29 23 5
29 24 8
29 25 5
29 26 5
29 27 6
29 28 6
30 0 4
30 1 7
30 2 5
30 3 4
30 4 7
30 5 3
30 6 7
30 7 8
30 8 8
30 9 9
30 10 4
30 11 1
30 12 5
30 13 5
30 14 6
30 15 7
30 16 10
30 17 2
30 18 4
30 19 7
30 20 3
30 21 6
30 22 9
30 23 4
30 24 2
30 25 10
30 26 3
30 27 2
30 28 3
30 29 10
31 0 3
31 1 8
31 2 7
31 3 8
31 4 4
31 5 8
31 6 5
31 7 9
31 8 5
31 9 1
31 10 9
31 11 1
31 12 10
31 13 5
31 14 1
31 15 4
31 16 10
31 17 3
31 18 9
31 19 9
31 20 4
31 21 1
31 22 8
31 23 10
31 24 5
31 25 7
31 26 1
31 27 1
31 28 6
31 29 4
31 30 7
32 0 6
32 1 7
32 2 2
32 3 5
32 4 8
32 5 1
32 6 6
32 7 6
32 8 1
32 9 7
32 10 8
32 11 2
32 12 4
32 13 3
32 14 2
32 15 2
32 16 7
32 17 2
32 18 7
32 19 5
32 20 5
32 21 5
32 22 10
32 23 5
32 24 10
32 25 7
32 26 2
32 27 8
32 28 5
32 29 7
32 30 5
32 31 4
33 0 5
33 1 4
33 2 8
33 3 8
33 4 7
33 5 8
33 6 7
33 7 3
33 8 10
33 9 2
33 10 2
33 11 8
33 12 3
33 13 9
33 14 2
33 15 7
33 16 1
33 17 4
33 18 5
33 19 7
33 20 8
33 21 4
33 22 1
33 23 4
33 24 9
33 25 3
33 26 6
33 27 3
33 28 3
33 29 10
33 30 1
33 31 1
33 32 6
34 0 2
34 1 8
34 2 7
34 3 5
34 4 1
34 5 1
34 6 8
34 7 4
34 8 7
34 9 5
34 10 6
34 11 3
34 12 8
34 13 3
34 14 7
34 15 4
34 16 9
34 17 1
34 18 10
34 19 6
34 20 8
34 21 10
34 22 7
34 23 5
34 24 3
34 25 1
34 26 5
34 27 1
34 28 10
34 29 4
34 30 9
34 31 5
34 32 6
34 33 5
35 0 2
35 1 1
35 2 3
35 3 4
35 4 10
35 5 3
35 6 7
35 7 2
35 8 10
35 9 10
35 10 2
35 11 4
35 12 8
35 13 6
35 14 5
35 15 1
35 16 10
35 17 7
35 18 10
35 19 6
35 20 5
35 21 2
35 22 9
35 23 10
35 24 5
35 25 6
35 26 7
35 27 3
35 28 9
35 29 6
35 30 5
35 31 5
35 32 9
35 33 4
35 34 10
36 0 2
36 1 9
36 2 9
36 3 7
36 4 10
36 5 6
36 6 8
36 7 2
36 8 9
36 9 3
36 10 5
36 11 10
36 12 8
36 13 2
36 14 3
36 15 6
36 16 8
36 17 4
36 18 1
36 19 8
36 20 3
36 21 7
36 22 4
36 23 3
36 24 4
36 25 8
36 26 3
36 27 8
36 28 1
36 29 3
36 30 9
36 31 1
36 32 8
36 33 4
36 34 4
36 35 6
37 0 4
37 1 8
37 2 4
37 3 6
37 4 6
37 5 3
37 6 9
37 7 3
37 8 8
37 9 8
37 10 5
37 11 1
37 12 5
37 13 4
37 14 1
37 15 9
37 16 3
37 17 6
37 18 2
37 19 8
37 20 7
37 21 10
37 22 4
37 23 1
37 24 1
37 25 10
37 26 4
37 27 3
37 28 6
37 29 10
37 30 8
37 31 3
37 32 4
37 33 7
37 34 4
37 35 10
37 36 6
38 0 7
38 1 2
38 2 7
38 3 7
38 4 8
38 5 7
38 6 7
38 7 7
38 8 10
38 9 4
38 10 2
38 11 3
38 12 8
38 13 2
38 14 7
38 15 8
38 16 6
38 17 7
38 18 5
38 19 2
38 20 10
38 21 3
38 22 6
38 23 3
38 24 3
38 25 6
38 26 6
38 27 1
38 28 4
38 29 1
38 30 4
38 31 1
38 32 8
38 33 7
38 34 9
38 35 8
38 36 2
38 37 1
39 0 8
39 1 6
39 2 6
39 3 2
39 4 2
39 5 6
39 6 2
39 7 9
39 8 9
39 9 3
39 10 5
39 11 10
39 12 9
39 13 9
39 14 4
39 15 8
39 16 4
39 17 7
39 18 9
39 19 1
39 20 8
39 21 3
39 22 6
39 23 1
39 24 7
39 25 1
39 26 7
39 27 9
39 28 1
39 29 6
39 30 5
39 31 7
39 32 8
39 33 10
39 34 6
39 35 1
39 36 6
39 37 3
39 38 7
